Si8atoms_1
5.468859874
     1.0  0.0  0.0
     0.0  1.0  0.0
     0.0  0.0  1.0
Si
    8 
Direct
 0.125   0.125   0.125
-0.125  -0.125  -0.125
 0.125   0.625   0.625
-0.125  -0.625  -0.625
 0.625   0.125   0.625
-0.625  -0.125  -0.625
 0.625   0.625   0.125
-0.625  -0.625  -0.125
